data/mip_solutions/furman_sahinidis/transshipment/7sp-s1_cplex.sol
Elapsed time: 0.0180468559265
Nodes explored: 0
Upper bound: 10.0
Lower bound: 10.0
y[0,0]=1
y[1,0]=1
y[1,1]=1
y[2,0]=1
y[2,1]=1
y[3,0]=1
y[3,1]=1
y[4,0]=1
y[5,0]=1
y[6,0]=1
q[0,0,6]=5831.6
q[1,0,4]=2268.0
q[1,0,5]=3693.6
q[1,0,6]=3952.8
q[1,1,7]=648.0
q[2,0,6]=7386.8
q[2,1,7]=626.0
q[3,0,2]=4656.3
q[3,0,3]=605.2
q[3,0,4]=3370.5
q[3,0,5]=5112.5
q[3,0,6]=3422.1
q[3,1,7]=561.0
q[4,0,5]=18694.8
q[4,0,6]=5885.4
q[5,0,3]=39504.8
q[5,0,4]=6118.0
q[5,0,5]=5160.1
q[5,0,6]=8474.3
q[6,0,1]=30942.0
q[6,0,2]=42902.7
q[6,0,4]=8298.5
r[2,6]=3568.2
r[3,4]=3321.8
r[3,5]=1914.8
r[4,4]=8078.0
r[4,5]=12117.0
r[5,2]=12760.4
r[5,3]=27268.8
r[5,6]=4803.5
r[6,1]=82143.2
r[6,2]=51201.2
r[6,3]=8298.5
r[6,4]=8298.5
